logs/miss/ip/miss-05-15-0.lp
\ LP format - for model browsing. Use MPS format to capture full model detail.
Minimize
  z0 + z1 + z2 + z3 + z4 + z5
Subject To
 R0: x0,1_6 + x0,1_9 + x0,1_15 + x0,1_22 + x0,1_31 - z1 <= 0
 R1: x0,2_6 + x0,2_9 + x0,2_15 + x0,2_22 + x0,2_31 - z2 <= 0
 R2: x0,3_6 + x0,3_9 + x0,3_15 + x0,3_22 + x0,3_31 - z3 <= 0
 R3: x0,4_6 + x0,4_9 + x0,4_15 + x0,4_22 + x0,4_31 - z4 <= 0
 R4: x0,5_6 + x0,5_9 + x0,5_15 + x0,5_22 + x0,5_31 - z5 <= 0
 R5: x1,2_6 + x1,2_9 + x1,2_15 + x1,2_22 + x1,2_31 - z2 <= 0
 R6: x1,3_6 + x1,3_9 + x1,3_15 + x1,3_22 + x1,3_31 - z3 <= 0
 R7: x1,4_6 + x1,4_9 + x1,4_15 + x1,4_22 + x1,4_31 - z4 <= 0
 R8: x1,5_6 + x1,5_9 + x1,5_15 + x1,5_22 + x1,5_31 - z5 <= 0
 R9: x2,3_6 + x2,3_9 + x2,3_15 + x2,3_22 + x2,3_31 - z3 <= 0
 R10: x2,4_6 + x2,4_9 + x2,4_15 + x2,4_22 + x2,4_31 - z4 <= 0
 R11: x2,5_6 + x2,5_9 + x2,5_15 + x2,5_22 + x2,5_31 - z5 <= 0
 R12: x3,4_6 + x3,4_9 + x3,4_15 + x3,4_22 + x3,4_31 - z4 <= 0
 R13: x3,5_6 + x3,5_9 + x3,5_15 + x3,5_22 + x3,5_31 - z5 <= 0
 R14: x4,5_6 + x4,5_9 + x4,5_15 + x4,5_22 + x4,5_31 - z5 <= 0
 R15: x0,1_6 + x0,2_6 + x0,3_6 + x0,4_6 + x0,5_6 + x1,2_6 + x1,3_6 + x1,4_6
   + x1,5_6 + x2,3_6 + x2,4_6 + x2,5_6 + x3,4_6 + x3,5_6 + x4,5_6 = 1
 R16: x0,1_9 + x0,2_9 + x0,3_9 + x0,4_9 + x0,5_9 + x1,2_9 + x1,3_9 + x1,4_9
   + x1,5_9 + x2,3_9 + x2,4_9 + x2,5_9 + x3,4_9 + x3,5_9 + x4,5_9 = 1
 R17: x0,1_15 + x0,2_15 + x0,3_15 + x0,4_15 + x0,5_15 + x1,2_15 + x1,3_15
   + x1,4_15 + x1,5_15 + x2,3_15 + x2,4_15 + x2,5_15 + x3,4_15 + x3,5_15
   + x4,5_15 = 1
 R18: x0,1_22 + x0,2_22 + x0,3_22 + x0,4_22 + x0,5_22 + x1,2_22 + x1,3_22
   + x1,4_22 + x1,5_22 + x2,3_22 + x2,4_22 + x2,5_22 + x3,4_22 + x3,5_22
   + x4,5_22 = 1
 R19: x0,1_31 + x0,2_31 + x0,3_31 + x0,4_31 + x0,5_31 + x1,2_31 + x1,3_31
   + x1,4_31 + x1,5_31 + x2,3_31 + x2,4_31 + x2,5_31 + x3,4_31 + x3,5_31
   + x4,5_31 = 1
 R20: p0 - p1 <= -1
 R21: - 6 x0,1_6 - p0 + p1 >= 0
 R22: 83 x0,1_6 - p0 + p1 <= 89
 R23: - 9 x0,1_9 - p0 + p1 >= 0
 R24: 83 x0,1_9 - p0 + p1 <= 92
 R25: - 15 x0,1_15 - p0 + p1 >= 0
 R26: 83 x0,1_15 - p0 + p1 <= 98
 R27: - 22 x0,1_22 - p0 + p1 >= 0
 R28: 83 x0,1_22 - p0 + p1 <= 105
 R29: - 31 x0,1_31 - p0 + p1 >= 0
 R30: 83 x0,1_31 - p0 + p1 <= 114
 R31: p0 - p2 <= -1
 R32: - 6 x0,2_6 - p0 + p2 >= 0
 R33: 83 x0,2_6 - p0 + p2 <= 89
 R34: - 9 x0,2_9 - p0 + p2 >= 0
 R35: 83 x0,2_9 - p0 + p2 <= 92
 R36: - 15 x0,2_15 - p0 + p2 >= 0
 R37: 83 x0,2_15 - p0 + p2 <= 98
 R38: - 22 x0,2_22 - p0 + p2 >= 0
 R39: 83 x0,2_22 - p0 + p2 <= 105
 R40: - 31 x0,2_31 - p0 + p2 >= 0
 R41: 83 x0,2_31 - p0 + p2 <= 114
 R42: p0 - p3 <= -1
 R43: - 6 x0,3_6 - p0 + p3 >= 0
 R44: 83 x0,3_6 - p0 + p3 <= 89
 R45: - 9 x0,3_9 - p0 + p3 >= 0
 R46: 83 x0,3_9 - p0 + p3 <= 92
 R47: - 15 x0,3_15 - p0 + p3 >= 0
 R48: 83 x0,3_15 - p0 + p3 <= 98
 R49: - 22 x0,3_22 - p0 + p3 >= 0
 R50: 83 x0,3_22 - p0 + p3 <= 105
 R51: - 31 x0,3_31 - p0 + p3 >= 0
 R52: 83 x0,3_31 - p0 + p3 <= 114
 R53: p0 - p4 <= -1
 R54: - 6 x0,4_6 - p0 + p4 >= 0
 R55: 83 x0,4_6 - p0 + p4 <= 89
 R56: - 9 x0,4_9 - p0 + p4 >= 0
 R57: 83 x0,4_9 - p0 + p4 <= 92
 R58: - 15 x0,4_15 - p0 + p4 >= 0
 R59: 83 x0,4_15 - p0 + p4 <= 98
 R60: - 22 x0,4_22 - p0 + p4 >= 0
 R61: 83 x0,4_22 - p0 + p4 <= 105
 R62: - 31 x0,4_31 - p0 + p4 >= 0
 R63: 83 x0,4_31 - p0 + p4 <= 114
 R64: p0 - p5 <= -1
 R65: - 6 x0,5_6 - p0 + p5 >= 0
 R66: 83 x0,5_6 - p0 + p5 <= 89
 R67: - 9 x0,5_9 - p0 + p5 >= 0
 R68: 83 x0,5_9 - p0 + p5 <= 92
 R69: - 15 x0,5_15 - p0 + p5 >= 0
 R70: 83 x0,5_15 - p0 + p5 <= 98
 R71: - 22 x0,5_22 - p0 + p5 >= 0
 R72: 83 x0,5_22 - p0 + p5 <= 105
 R73: - 31 x0,5_31 - p0 + p5 >= 0
 R74: 83 x0,5_31 - p0 + p5 <= 114
 R75: p1 - p2 <= -1
 R76: - 6 x1,2_6 - p1 + p2 >= 0
 R77: 83 x1,2_6 - p1 + p2 <= 89
 R78: - 9 x1,2_9 - p1 + p2 >= 0
 R79: 83 x1,2_9 - p1 + p2 <= 92
 R80: - 15 x1,2_15 - p1 + p2 >= 0
 R81: 83 x1,2_15 - p1 + p2 <= 98
 R82: - 22 x1,2_22 - p1 + p2 >= 0
 R83: 83 x1,2_22 - p1 + p2 <= 105
 R84: - 31 x1,2_31 - p1 + p2 >= 0
 R85: 83 x1,2_31 - p1 + p2 <= 114
 R86: p1 - p3 <= -1
 R87: - 6 x1,3_6 - p1 + p3 >= 0
 R88: 83 x1,3_6 - p1 + p3 <= 89
 R89: - 9 x1,3_9 - p1 + p3 >= 0
 R90: 83 x1,3_9 - p1 + p3 <= 92
 R91: - 15 x1,3_15 - p1 + p3 >= 0
 R92: 83 x1,3_15 - p1 + p3 <= 98
 R93: - 22 x1,3_22 - p1 + p3 >= 0
 R94: 83 x1,3_22 - p1 + p3 <= 105
 R95: - 31 x1,3_31 - p1 + p3 >= 0
 R96: 83 x1,3_31 - p1 + p3 <= 114
 R97: p1 - p4 <= -1
 R98: - 6 x1,4_6 - p1 + p4 >= 0
 R99: 83 x1,4_6 - p1 + p4 <= 89
 R100: - 9 x1,4_9 - p1 + p4 >= 0
 R101: 83 x1,4_9 - p1 + p4 <= 92
 R102: - 15 x1,4_15 - p1 + p4 >= 0
 R103: 83 x1,4_15 - p1 + p4 <= 98
 R104: - 22 x1,4_22 - p1 + p4 >= 0
 R105: 83 x1,4_22 - p1 + p4 <= 105
 R106: - 31 x1,4_31 - p1 + p4 >= 0
 R107: 83 x1,4_31 - p1 + p4 <= 114
 R108: p1 - p5 <= -1
 R109: - 6 x1,5_6 - p1 + p5 >= 0
 R110: 83 x1,5_6 - p1 + p5 <= 89
 R111: - 9 x1,5_9 - p1 + p5 >= 0
 R112: 83 x1,5_9 - p1 + p5 <= 92
 R113: - 15 x1,5_15 - p1 + p5 >= 0
 R114: 83 x1,5_15 - p1 + p5 <= 98
 R115: - 22 x1,5_22 - p1 + p5 >= 0
 R116: 83 x1,5_22 - p1 + p5 <= 105
 R117: - 31 x1,5_31 - p1 + p5 >= 0
 R118: 83 x1,5_31 - p1 + p5 <= 114
 R119: p2 - p3 <= -1
 R120: - 6 x2,3_6 - p2 + p3 >= 0
 R121: 83 x2,3_6 - p2 + p3 <= 89
 R122: - 9 x2,3_9 - p2 + p3 >= 0
 R123: 83 x2,3_9 - p2 + p3 <= 92
 R124: - 15 x2,3_15 - p2 + p3 >= 0
 R125: 83 x2,3_15 - p2 + p3 <= 98
 R126: - 22 x2,3_22 - p2 + p3 >= 0
 R127: 83 x2,3_22 - p2 + p3 <= 105
 R128: - 31 x2,3_31 - p2 + p3 >= 0
 R129: 83 x2,3_31 - p2 + p3 <= 114
 R130: p2 - p4 <= -1
 R131: - 6 x2,4_6 - p2 + p4 >= 0
 R132: 83 x2,4_6 - p2 + p4 <= 89
 R133: - 9 x2,4_9 - p2 + p4 >= 0
 R134: 83 x2,4_9 - p2 + p4 <= 92
 R135: - 15 x2,4_15 - p2 + p4 >= 0
 R136: 83 x2,4_15 - p2 + p4 <= 98
 R137: - 22 x2,4_22 - p2 + p4 >= 0
 R138: 83 x2,4_22 - p2 + p4 <= 105
 R139: - 31 x2,4_31 - p2 + p4 >= 0
 R140: 83 x2,4_31 - p2 + p4 <= 114
 R141: p2 - p5 <= -1
 R142: - 6 x2,5_6 - p2 + p5 >= 0
 R143: 83 x2,5_6 - p2 + p5 <= 89
 R144: - 9 x2,5_9 - p2 + p5 >= 0
 R145: 83 x2,5_9 - p2 + p5 <= 92
 R146: - 15 x2,5_15 - p2 + p5 >= 0
 R147: 83 x2,5_15 - p2 + p5 <= 98
 R148: - 22 x2,5_22 - p2 + p5 >= 0
 R149: 83 x2,5_22 - p2 + p5 <= 105
 R150: - 31 x2,5_31 - p2 + p5 >= 0
 R151: 83 x2,5_31 - p2 + p5 <= 114
 R152: p3 - p4 <= -1
 R153: - 6 x3,4_6 - p3 + p4 >= 0
 R154: 83 x3,4_6 - p3 + p4 <= 89
 R155: - 9 x3,4_9 - p3 + p4 >= 0
 R156: 83 x3,4_9 - p3 + p4 <= 92
 R157: - 15 x3,4_15 - p3 + p4 >= 0
 R158: 83 x3,4_15 - p3 + p4 <= 98
 R159: - 22 x3,4_22 - p3 + p4 >= 0
 R160: 83 x3,4_22 - p3 + p4 <= 105
 R161: - 31 x3,4_31 - p3 + p4 >= 0
 R162: 83 x3,4_31 - p3 + p4 <= 114
 R163: p3 - p5 <= -1
 R164: - 6 x3,5_6 - p3 + p5 >= 0
 R165: 83 x3,5_6 - p3 + p5 <= 89
 R166: - 9 x3,5_9 - p3 + p5 >= 0
 R167: 83 x3,5_9 - p3 + p5 <= 92
 R168: - 15 x3,5_15 - p3 + p5 >= 0
 R169: 83 x3,5_15 - p3 + p5 <= 98
 R170: - 22 x3,5_22 - p3 + p5 >= 0
 R171: 83 x3,5_22 - p3 + p5 <= 105
 R172: - 31 x3,5_31 - p3 + p5 >= 0
 R173: 83 x3,5_31 - p3 + p5 <= 114
 R174: p4 - p5 <= -1
 R175: - 6 x4,5_6 - p4 + p5 >= 0
 R176: 83 x4,5_6 - p4 + p5 <= 89
 R177: - 9 x4,5_9 - p4 + p5 >= 0
 R178: 83 x4,5_9 - p4 + p5 <= 92
 R179: - 15 x4,5_15 - p4 + p5 >= 0
 R180: 83 x4,5_15 - p4 + p5 <= 98
 R181: - 22 x4,5_22 - p4 + p5 >= 0
 R182: 83 x4,5_22 - p4 + p5 <= 105
 R183: - 31 x4,5_31 - p4 + p5 >= 0
 R184: 83 x4,5_31 - p4 + p5 <= 114
 R185: z0 - z1 >= 0
 R186: z1 - z2 >= 0
 R187: z2 - z3 >= 0
 R188: z3 - z4 >= 0
 R189: z4 - z5 >= 0
Bounds
Binaries
 x0,1_6 x0,1_9 x0,1_15 x0,1_22 x0,1_31 x0,2_6 x0,2_9 x0,2_15 x0,2_22
 x0,2_31 x0,3_6 x0,3_9 x0,3_15 x0,3_22 x0,3_31 x0,4_6 x0,4_9 x0,4_15
 x0,4_22 x0,4_31 x0,5_6 x0,5_9 x0,5_15 x0,5_22 x0,5_31 x1,2_6 x1,2_9
 x1,2_15 x1,2_22 x1,2_31 x1,3_6 x1,3_9 x1,3_15 x1,3_22 x1,3_31 x1,4_6
 x1,4_9 x1,4_15 x1,4_22 x1,4_31 x1,5_6 x1,5_9 x1,5_15 x1,5_22 x1,5_31
 x2,3_6 x2,3_9 x2,3_15 x2,3_22 x2,3_31 x2,4_6 x2,4_9 x2,4_15 x2,4_22
 x2,4_31 x2,5_6 x2,5_9 x2,5_15 x2,5_22 x2,5_31 x3,4_6 x3,4_9 x3,4_15
 x3,4_22 x3,4_31 x3,5_6 x3,5_9 x3,5_15 x3,5_22 x3,5_31 x4,5_6 x4,5_9
 x4,5_15 x4,5_22 x4,5_31 z0 z1 z2 z3 z4 z5
Generals
 p0 p1 p2 p3 p4 p5
End
