logs/miss/ip/miss-05-15-0.sol
# Objective value = 4
x0,1_6 0
x0,1_9 1
x0,1_15 0
x0,1_22 0
x0,1_31 0
x0,2_6 0
x0,2_9 0
x0,2_15 1
x0,2_22 0
x0,2_31 0
x0,3_6 0
x0,3_9 0
x0,3_15 0
x0,3_22 0
x0,3_31 1
x0,4_6 0
x0,4_9 0
x0,4_15 0
x0,4_22 0
x0,4_31 0
x0,5_6 0
x0,5_9 0
x0,5_15 0
x0,5_22 0
x0,5_31 0
x1,2_6 1
x1,2_9 0
x1,2_15 0
x1,2_22 0
x1,2_31 0
x1,3_6 0
x1,3_9 0
x1,3_15 0
x1,3_22 1
x1,3_31 0
x1,4_6 0
x1,4_9 0
x1,4_15 0
x1,4_22 0
x1,4_31 0
x1,5_6 0
x1,5_9 0
x1,5_15 0
x1,5_22 0
x1,5_31 0
x2,3_6 0
x2,3_9 0
x2,3_15 0
x2,3_22 0
x2,3_31 0
x2,4_6 0
x2,4_9 0
x2,4_15 0
x2,4_22 0
x2,4_31 0
x2,5_6 0
x2,5_9 0
x2,5_15 0
x2,5_22 0
x2,5_31 0
x3,4_6 0
x3,4_9 0
x3,4_15 0
x3,4_22 0
x3,4_31 0
x3,5_6 0
x3,5_9 0
x3,5_15 0
x3,5_22 0
x3,5_31 0
x4,5_6 0
x4,5_9 0
x4,5_15 0
x4,5_22 0
x4,5_31 0
z0 1
z1 1
z2 1
z3 1
z4 0
z5 0
p0 0
p1 9
p2 15
p3 31
p4 88
p5 89
